p tw 210 5489
1 159
1 11
1 43
1 83
1 87
1 94
1 100
1 112
1 2
1 14
1 91
1 130
1 137
1 142
1 147
1 90
1 123
1 124
1 113
1 134
1 145
1 156
1 167
1 178
1 189
1 165
1 190
1 191
1 192
1 194
1 4
1 6
1 42
1 76
1 128
1 127
1 126
1 125
1 114
1 102
1 80
1 69
1 58
1 47
1 36
1 26
1 25
1 3
1 200
1 122
1 121
1 120
1 119
1 118
1 117
1 116
1 115
1 92
1 86
1 64
1 153
1 152
1 150
1 95
1 73
1 106
1 82
1 81
1 79
1 78
1 77
1 93
1 37
1 84
1 107
1 75
1 74
1 72
1 71
1 70
1 67
1 68
1 31
1 30
1 29
1 28
1 27
1 24
1 23
1 22
1 21
1 61
1 98
1 59
1 57
1 56
1 55
1 54
1 63
1 62
1 109
1 66
1 65
1 85
1 60
1 97
1 32
1 35
1 34
1 33
1 110
1 52
1 51
1 50
1 49
1 48
1 46
1 45
1 44
1 111
1 41
1 40
1 39
1 38
1 89
1 18
1 96
1 16
1 15
1 13
1 10
1 9
1 8
1 108
1 19
1 157
1 155
1 53
1 163
1 162
1 161
1 104
1 210
1 209
1 208
1 207
1 206
1 204
1 203
1 202
1 201
1 199
1 198
1 197
1 195
1 105
1 188
1 187
1 186
1 184
1 183
1 182
1 181
1 180
1 179
1 176
1 175
1 174
1 173
1 172
1 171
1 170
1 168
1 166
1 88
1 144
1 143
1 141
1 140
1 139
1 101
1 99
1 138
1 136
1 135
1 133
1 132
1 131
1 129
1 103
1 149
1 148
1 146
2 14
2 91
2 130
2 137
2 142
2 147
2 90
2 123
2 124
2 113
2 134
2 145
2 156
2 167
2 178
2 189
2 165
2 190
2 191
2 192
2 194
2 4
2 6
2 42
2 76
2 120
2 119
2 118
2 117
2 116
2 115
113 189
113 178
113 167
113 156
113 145
113 134
113 76
113 42
113 6
113 4
113 165
113 194
113 192
113 191
113 190
134 189
134 178
134 167
134 156
134 145
134 76
134 42
134 6
134 4
134 165
134 194
134 192
134 191
134 190
145 189
145 178
145 167
145 156
145 76
145 42
145 6
145 4
145 165
145 194
145 192
145 191
145 190
156 189
156 178
156 167
156 76
156 42
156 6
156 4
156 165
156 194
156 192
156 191
156 190
167 189
167 178
167 76
167 42
167 6
167 4
167 165
167 194
167 192
167 191
167 190
178 189
178 76
178 42
178 6
178 4
178 165
178 194
178 192
178 191
178 190
189 76
189 42
189 6
189 4
189 165
189 194
189 192
189 191
189 190
200 128
200 127
200 126
200 125
200 114
200 102
200 80
200 69
200 58
200 47
200 36
200 25
200 3
200 153
200 152
200 150
200 82
200 81
200 79
200 78
200 77
200 75
200 74
200 72
200 71
200 70
200 67
200 31
200 30
200 29
200 28
200 27
200 24
200 23
200 22
200 21
200 61
200 59
200 57
200 56
200 55
200 54
200 63
200 62
200 66
200 65
200 32
200 35
200 34
200 33
200 52
200 51
200 50
200 49
200 48
200 46
200 45
200 44
200 41
200 40
200 39
200 38
200 18
200 16
200 15
200 13
200 10
200 9
200 8
200 19
200 157
200 155
200 163
200 162
200 161
200 210
200 209
200 208
200 207
200 206
200 204
200 203
200 202
200 201
200 199
200 198
200 197
200 195
200 188
200 187
200 186
200 184
200 183
200 182
200 181
200 180
200 179
200 176
200 175
200 174
200 173
200 172
200 171
200 170
200 168
200 166
200 144
200 143
200 141
200 140
200 139
200 138
200 136
200 135
200 133
200 132
200 131
200 129
200 149
200 148
200 146
3 128
3 127
3 126
3 125
3 114
3 102
3 80
3 69
3 58
3 47
3 36
3 25
3 153
3 152
3 150
3 82
3 81
3 79
3 78
3 77
3 75
3 74
3 72
3 71
3 70
3 67
3 31
3 30
3 29
3 28
3 27
3 24
3 23
3 22
3 21
3 61
3 59
3 57
3 56
3 55
3 54
3 63
3 62
3 66
3 65
3 32
3 35
3 34
3 33
3 52
3 51
3 50
3 49
3 48
3 46
3 45
3 44
3 41
3 40
3 39
3 38
3 18
3 16
3 15
3 13
3 10
3 9
3 8
3 19
3 157
3 155
3 163
3 162
3 161
3 210
3 209
3 208
3 207
3 206
3 204
3 203
3 202
3 201
3 199
3 198
3 197
3 195
3 188
3 187
3 186
3 184
3 183
3 182
3 181
3 180
3 179
3 176
3 175
3 174
3 173
3 172
3 171
3 170
3 168
3 166
3 144
3 143
3 141
3 140
3 139
3 138
3 136
3 135
3 133
3 132
3 131
3 129
3 149
3 148
3 146
14 91
14 130
14 137
14 142
14 147
14 90
14 123
14 124
14 165
14 190
14 191
14 192
14 194
14 4
14 6
14 42
14 76
14 122
14 121
14 120
14 119
14 118
14 117
14 116
14 115
14 128
14 126
14 114
14 102
14 80
14 58
14 36
14 25
14 86
14 85
14 125
14 153
14 150
14 127
14 69
14 47
14 95
14 30
14 28
14 34
14 24
14 97
14 22
14 32
14 21
14 29
14 35
14 68
14 89
14 31
14 60
14 162
14 155
14 157
14 163
14 161
14 88
14 64
14 53
25 128
25 127
25 126
25 125
25 114
25 102
25 80
25 69
25 58
25 47
25 36
25 153
25 152
25 150
25 82
25 81
25 79
25 78
25 77
25 75
25 74
25 72
25 71
25 70
25 67
25 31
25 30
25 29
25 28
25 27
25 24
25 23
25 22
25 21
25 61
25 59
25 57
25 56
25 55
25 54
25 63
25 62
25 66
25 65
25 32
25 35
25 34
25 33
25 52
25 51
25 50
25 49
25 48
25 46
25 45
25 44
25 41
25 40
25 39
25 38
25 18
25 16
25 15
25 13
25 10
25 9
25 8
25 19
25 157
25 155
25 163
25 162
25 161
25 210
25 209
25 208
25 207
25 206
25 204
25 203
25 202
25 201
25 199
25 198
25 197
25 195
25 188
25 187
25 186
25 184
25 183
25 182
25 181
25 180
25 179
25 176
25 175
25 174
25 173
25 172
25 171
25 170
25 168
25 166
25 144
25 143
25 141
25 140
25 139
25 138
25 136
25 135
25 133
25 132
25 131
25 129
25 149
25 148
25 146
36 128
36 127
36 126
36 125
36 114
36 102
36 80
36 69
36 58
36 47
36 153
36 152
36 150
36 82
36 81
36 79
36 78
36 77
36 75
36 74
36 72
36 71
36 70
36 67
36 31
36 30
36 29
36 28
36 27
36 24
36 23
36 22
36 21
36 61
36 59
36 57
36 56
36 55
36 54
36 63
36 62
36 66
36 65
36 32
36 35
36 34
36 33
36 52
36 51
36 50
36 49
36 48
36 46
36 45
36 44
36 41
36 40
36 39
36 38
36 18
36 16
36 15
36 13
36 10
36 9
36 8
36 19
36 157
36 155
36 163
36 162
36 161
36 210
36 209
36 208
36 207
36 206
36 204
36 203
36 202
36 201
36 199
36 198
36 197
36 195
36 188
36 187
36 186
36 184
36 183
36 182
36 181
36 180
36 179
36 176
36 175
36 174
36 173
36 172
36 171
36 170
36 168
36 166
36 144
36 143
36 141
36 140
36 139
36 138
36 136
36 135
36 133
36 132
36 131
36 129
36 149
36 148
36 146
47 128
47 127
47 126
47 125
47 114
47 102
47 80
47 69
47 58
47 153
47 152
47 150
47 82
47 81
47 79
47 78
47 77
47 75
47 74
47 72
47 71
47 70
47 67
47 31
47 30
47 29
47 28
47 27
47 24
47 23
47 22
47 21
47 61
47 59
47 57
47 56
47 55
47 54
47 63
47 62
47 66
47 65
47 32
47 35
47 34
47 33
47 52
47 51
47 50
47 49
47 48
47 46
47 45
47 44
47 41
47 40
47 39
47 38
47 18
47 16
47 15
47 13
47 10
47 9
47 8
47 19
47 157
47 155
47 163
47 162
47 161
47 210
47 209
47 208
47 207
47 206
47 204
47 203
47 202
47 201
47 199
47 198
47 197
47 195
47 188
47 187
47 186
47 184
47 183
47 182
47 181
47 180
47 179
47 176
47 175
47 174
47 173
47 172
47 171
47 170
47 168
47 166
47 144
47 143
47 141
47 140
47 139
47 138
47 136
47 135
47 133
47 132
47 131
47 129
47 149
47 148
47 146
58 128
58 127
58 126
58 125
58 114
58 102
58 80
58 69
58 153
58 152
58 150
58 82
58 81
58 79
58 78
58 77
58 75
58 74
58 72
58 71
58 70
58 67
58 31
58 30
58 29
58 28
58 27
58 24
58 23
58 22
58 21
58 61
58 59
58 57
58 56
58 55
58 54
58 63
58 62
58 66
58 65
58 32
58 35
58 34
58 33
58 52
58 51
58 50
58 49
58 48
58 46
58 45
58 44
58 41
58 40
58 39
58 38
58 18
58 16
58 15
58 13
58 10
58 9
58 8
58 19
58 157
58 155
58 163
58 162
58 161
58 210
58 209
58 208
58 207
58 206
58 204
58 203
58 202
58 201
58 199
58 198
58 197
58 195
58 188
58 187
58 186
58 184
58 183
58 182
58 181
58 180
58 179
58 176
58 175
58 174
58 173
58 172
58 171
58 170
58 168
58 166
58 144
58 143
58 141
58 140
58 139
58 138
58 136
58 135
58 133
58 132
58 131
58 129
58 149
58 148
58 146
69 128
69 127
69 126
69 125
69 114
69 102
69 80
69 153
69 152
69 150
69 82
69 81
69 79
69 78
69 77
69 75
69 74
69 72
69 71
69 70
69 67
69 31
69 30
69 29
69 28
69 27
69 24
69 23
69 22
69 21
69 61
69 59
69 57
69 56
69 55
69 54
69 63
69 62
69 66
69 65
69 32
69 35
69 34
69 33
69 52
69 51
69 50
69 49
69 48
69 46
69 45
69 44
69 41
69 40
69 39
69 38
69 18
69 16
69 15
69 13
69 10
69 9
69 8
69 19
69 157
69 155
69 163
69 162
69 161
69 210
69 209
69 208
69 207
69 206
69 204
69 203
69 202
69 201
69 199
69 198
69 197
69 195
69 188
69 187
69 186
69 184
69 183
69 182
69 181
69 180
69 179
69 176
69 175
69 174
69 173
69 172
69 171
69 170
69 168
69 166
69 144
69 143
69 141
69 140
69 139
69 138
69 136
69 135
69 133
69 132
69 131
69 129
69 149
69 148
69 146
80 128
80 127
80 126
80 125
80 114
80 102
80 153
80 152
80 150
80 82
80 81
80 79
80 78
80 77
80 75
80 74
80 72
80 71
80 70
80 67
80 31
80 30
80 29
80 28
80 27
80 24
80 23
80 22
80 21
80 61
80 59
80 57
80 56
80 55
80 54
80 63
80 62
80 66
80 65
80 32
80 35
80 34
80 33
80 52
80 51
80 50
80 49
80 48
80 46
80 45
80 44
80 41
80 40
80 39
80 38
80 16
80 15
80 13
80 10
80 9
80 8
80 157
80 155
80 163
80 162
80 161
80 210
80 209
80 208
80 207
80 206
80 204
80 203
80 202
80 201
80 199
80 198
80 197
80 195
80 188
80 187
80 186
80 184
80 183
80 182
80 181
80 180
80 179
80 176
80 175
80 174
80 173
80 172
80 171
80 170
80 168
80 166
80 144
80 143
80 141
80 140
80 139
80 138
80 136
80 135
80 133
80 132
80 131
80 129
80 149
80 148
80 146
91 130
91 137
91 142
91 147
91 90
91 123
91 124
91 165
91 190
91 191
91 192
91 194
91 4
91 6
91 42
91 76
91 122
91 121
91 120
91 119
91 118
91 117
91 116
91 115
91 128
91 126
91 114
91 102
91 86
91 85
91 125
91 153
91 150
91 127
91 95
91 30
91 28
91 34
91 24
91 97
91 22
91 32
91 21
91 29
91 35
91 68
91 89
91 31
91 60
91 162
91 155
91 157
91 163
91 161
91 88
91 64
91 53
102 128
102 127
102 126
102 125
102 114
102 153
102 152
102 150
102 82
102 81
102 79
102 78
102 77
102 75
102 74
102 72
102 71
102 70
102 67
102 31
102 30
102 29
102 28
102 27
102 24
102 23
102 22
102 21
102 61
102 59
102 57
102 56
102 55
102 54
102 63
102 62
102 66
102 65
102 32
102 35
102 34
102 33
102 52
102 51
102 50
102 49
102 48
102 46
102 45
102 44
102 41
102 40
102 39
102 38
102 157
102 155
102 163
102 162
102 161
102 210
102 209
102 208
102 207
102 206
102 204
102 203
102 202
102 201
102 199
102 198
102 197
102 195
102 188
102 187
102 186
102 184
102 183
102 182
102 181
102 180
102 179
102 176
102 175
102 174
102 173
102 172
102 171
102 170
102 168
102 166
102 144
102 143
102 141
102 140
102 139
102 138
102 136
102 135
102 133
102 132
102 131
102 129
102 149
102 148
102 146
114 128
114 127
114 126
114 125
114 153
114 152
114 150
114 82
114 81
114 79
114 78
114 77
114 75
114 74
114 72
114 71
114 70
114 67
114 31
114 30
114 29
114 28
114 27
114 24
114 23
114 22
114 21
114 61
114 59
114 57
114 56
114 55
114 54
114 63
114 62
114 66
114 65
114 32
114 35
114 34
114 33
114 52
114 51
114 50
114 49
114 48
114 46
114 45
114 44
114 41
114 40
114 39
114 38
114 157
114 155
114 163
114 162
114 161
114 210
114 209
114 208
114 207
114 206
114 204
114 203
114 202
114 201
114 199
114 198
114 197
114 195
114 188
114 187
114 186
114 184
114 183
114 182
114 181
114 180
114 179
114 176
114 175
114 174
114 173
114 172
114 171
114 170
114 168
114 166
114 144
114 143
114 141
114 140
114 139
114 138
114 136
114 135
114 133
114 132
114 131
114 129
114 149
114 148
114 146
125 128
125 127
125 126
125 153
125 152
125 150
125 82
125 81
125 79
125 78
125 77
125 75
125 74
125 72
125 71
125 70
125 67
125 31
125 30
125 29
125 28
125 27
125 24
125 23
125 22
125 21
125 61
125 59
125 57
125 56
125 55
125 54
125 63
125 62
125 66
125 65
125 32
125 35
125 34
125 33
125 52
125 51
125 50
125 49
125 48
125 46
125 45
125 44
125 41
125 40
125 39
125 38
125 157
125 155
125 163
125 162
125 161
125 210
125 209
125 208
125 207
125 206
125 204
125 203
125 202
125 201
125 199
125 198
125 197
125 195
125 188
125 187
125 186
125 184
125 183
125 182
125 181
125 180
125 179
125 176
125 175
125 174
125 173
125 172
125 171
125 170
125 168
125 166
125 144
125 143
125 141
125 140
125 139
125 138
125 136
125 135
125 133
125 132
125 131
125 129
125 149
125 148
125 146
126 128
126 127
126 153
126 152
126 150
126 82
126 81
126 79
126 78
126 77
126 75
126 74
126 72
126 71
126 70
126 67
126 31
126 30
126 29
126 28
126 27
126 24
126 23
126 22
126 21
126 61
126 59
126 57
126 56
126 55
126 54
126 63
126 62
126 66
126 65
126 32
126 35
126 34
126 33
126 52
126 51
126 50
126 49
126 48
126 46
126 45
126 44
126 41
126 40
126 39
126 38
126 157
126 155
126 163
126 162
126 161
126 210
126 209
126 208
126 207
126 206
126 204
126 203
126 202
126 201
126 199
126 198
126 197
126 195
126 188
126 187
126 186
126 184
126 183
126 182
126 181
126 180
126 179
126 176
126 175
126 174
126 173
126 172
126 171
126 170
126 168
126 166
126 144
126 143
126 141
126 140
126 139
126 138
126 136
126 135
126 133
126 132
126 131
126 129
126 149
126 148
126 146
127 128
127 153
127 152
127 150
127 82
127 81
127 79
127 78
127 77
127 75
127 74
127 72
127 71
127 70
127 67
127 31
127 30
127 29
127 28
127 27
127 24
127 23
127 22
127 21
127 61
127 59
127 57
127 56
127 55
127 54
127 63
127 62
127 66
127 65
127 32
127 35
127 34
127 33
127 52
127 51
127 50
127 49
127 48
127 46
127 45
127 44
127 41
127 40
127 39
127 38
127 157
127 155
127 163
127 162
127 161
127 210
127 209
127 208
127 207
127 206
127 204
127 203
127 202
127 201
127 199
127 198
127 197
127 195
127 188
127 187
127 186
127 184
127 183
127 182
127 181
127 180
127 179
127 176
127 175
127 174
127 173
127 172
127 171
127 170
127 168
127 166
127 144
127 143
127 141
127 140
127 139
127 138
127 136
127 135
127 133
127 132
127 131
127 129
127 149
127 148
127 146
128 153
128 152
128 150
128 82
128 81
128 79
128 78
128 77
128 75
128 74
128 72
128 71
128 70
128 67
128 31
128 30
128 29
128 28
128 27
128 24
128 23
128 22
128 21
128 61
128 59
128 57
128 56
128 55
128 54
128 63
128 62
128 66
128 65
128 32
128 35
128 34
128 33
128 52
128 51
128 50
128 49
128 48
128 46
128 45
128 44
128 41
128 40
128 39
128 38
128 157
128 155
128 163
128 162
128 161
128 210
128 209
128 208
128 207
128 206
128 204
128 203
128 202
128 201
128 199
128 198
128 197
128 195
128 188
128 187
128 186
128 184
128 183
128 182
128 181
128 180
128 179
128 176
128 175
128 174
128 173
128 172
128 171
128 170
128 168
128 166
128 144
128 143
128 141
128 140
128 139
128 138
128 136
128 135
128 133
128 132
128 131
128 129
128 149
128 148
128 146
129 144
129 143
129 141
129 140
129 139
129 138
129 136
129 135
129 133
129 132
129 131
129 149
129 148
129 146
130 137
130 142
130 147
130 90
130 123
130 124
130 165
130 190
130 191
130 192
130 194
130 4
130 6
130 42
130 76
130 26
130 122
130 121
130 120
130 119
130 118
130 117
130 116
130 115
130 86
130 85
130 153
130 150
130 95
130 30
130 28
130 34
130 24
130 97
130 22
130 32
130 21
130 29
130 35
130 68
130 89
130 31
130 60
130 162
130 155
130 157
130 163
130 161
130 88
130 64
130 53
131 144
131 143
131 141
131 140
131 139
131 138
131 136
131 135
131 133
131 132
131 149
131 148
131 146
132 135
132 133
133 138
133 136
133 135
135 139
135 138
135 136
136 144
136 143
136 141
136 140
136 139
136 138
136 149
136 148
136 146
137 142
137 147
137 90
137 123
137 124
137 165
137 190
137 191
137 192
137 194
137 4
137 6
137 42
137 76
137 26
137 122
137 121
137 120
137 119
137 118
137 117
137 116
137 115
137 86
137 85
137 153
137 150
137 95
137 30
137 28
137 34
137 24
137 97
137 22
137 32
137 21
137 29
137 35
137 68
137 89
137 31
137 60
137 162
137 155
137 157
137 163
137 161
137 88
137 64
137 53
138 144
138 143
138 141
138 140
138 139
138 149
138 148
138 146
139 143
139 141
139 140
140 141
141 144
141 143
141 149
141 148
141 146
142 147
142 90
142 123
142 124
142 165
142 190
142 191
142 192
142 194
142 4
142 6
142 42
142 76
142 86
142 85
142 153
142 150
142 95
142 122
142 121
142 120
142 119
142 118
142 117
142 116
142 115
142 30
142 28
142 34
142 24
142 97
142 22
142 32
142 21
142 29
142 35
142 68
142 89
142 31
142 60
142 162
142 155
142 157
142 163
142 161
142 88
142 64
142 53
143 144
143 149
143 148
143 146
144 149
144 148
144 146
146 149
146 148
147 90
147 123
147 124
147 165
147 190
147 191
147 192
147 194
147 4
147 6
147 42
147 76
147 121
147 120
147 119
147 118
147 117
147 116
147 115
147 86
147 85
147 153
147 150
147 95
147 122
147 30
147 28
147 34
147 24
147 97
147 22
147 32
147 21
147 29
147 35
147 68
147 89
147 31
147 60
147 162
147 155
147 157
147 163
147 161
147 88
147 64
147 53
148 149
150 153
150 152
150 82
150 81
150 79
150 78
150 77
150 75
150 74
150 72
150 71
150 70
150 67
150 31
150 30
150 29
150 28
150 27
150 24
150 23
150 22
150 21
150 61
150 59
150 57
150 56
150 55
150 54
150 63
150 62
150 66
150 65
150 32
150 35
150 34
150 33
150 52
150 51
150 50
150 49
150 48
150 46
150 45
150 44
150 41
150 40
150 39
150 38
150 157
150 155
150 163
150 162
150 161
150 210
150 209
150 208
150 207
150 206
150 204
150 203
150 202
150 201
150 199
150 198
150 197
150 195
150 188
150 187
150 186
150 184
150 183
150 182
150 181
150 180
150 179
150 176
150 175
150 174
150 173
150 172
150 171
150 170
150 168
150 166
151 154
151 158
151 160
151 164
151 169
151 177
151 185
151 193
151 196
151 205
151 5
151 7
151 12
151 17
151 20
151 26
151 37
151 53
151 60
151 64
151 68
151 73
151 84
151 85
151 86
151 88
151 89
151 92
151 93
151 95
151 96
151 97
151 98
151 99
151 101
151 103
151 104
151 105
151 106
151 107
151 108
151 109
151 110
151 111
151 115
151 116
151 117
151 118
151 119
151 120
151 121
151 122
151 152
151 153
151 155
151 157
151 161
151 162
151 163
151 166
151 168
151 170
151 171
151 172
151 173
151 174
151 175
151 176
151 179
151 180
151 181
151 182
151 183
151 184
151 186
151 187
151 188
151 195
151 197
151 198
151 199
151 201
151 202
151 203
151 204
151 206
151 207
151 208
151 209
151 210
151 8
151 9
151 10
151 13
151 15
151 16
151 18
151 19
151 21
151 22
151 23
151 24
151 27
151 28
151 29
151 30
151 31
151 32
151 33
151 34
151 35
151 38
151 39
151 40
151 41
151 44
151 45
151 46
151 48
151 49
151 50
151 51
151 52
151 54
151 55
151 56
151 57
151 59
151 61
151 62
151 63
151 65
151 66
151 67
151 70
151 71
151 72
151 74
151 75
151 77
151 78
151 79
151 81
151 82
151 124
151 123
151 76
151 90
151 42
151 6
151 4
151 165
151 194
151 192
151 191
151 190
152 153
153 82
153 81
153 79
153 78
153 77
153 75
153 74
153 72
153 71
153 70
153 67
153 31
153 30
153 29
153 28
153 27
153 24
153 23
153 22
153 21
153 61
153 59
153 57
153 56
153 55
153 54
153 63
153 62
153 66
153 65
153 32
153 35
153 34
153 33
153 52
153 51
153 50
153 49
153 48
153 46
153 45
153 44
153 41
153 40
153 39
153 38
153 157
153 155
153 163
153 162
153 161
153 210
153 209
153 208
153 207
153 206
153 204
153 203
153 202
153 201
153 199
153 198
153 197
153 195
153 188
153 187
153 186
153 184
153 183
153 182
153 181
153 180
153 179
153 176
153 175
153 174
153 173
153 172
153 171
153 170
153 168
153 166
154 158
154 160
154 164
154 169
154 177
154 185
154 193
154 196
154 205
154 5
154 7
154 12
154 17
154 20
154 26
154 37
154 53
154 60
154 64
154 68
154 73
154 84
154 85
154 86
154 88
154 89
154 92
154 93
154 95
154 96
154 97
154 98
154 99
154 101
154 103
154 104
154 105
154 106
154 107
154 108
154 109
154 110
154 111
154 115
154 116
154 117
154 118
154 119
154 120
154 121
154 122
154 155
154 157
154 161
154 162
154 163
154 166
154 168
154 170
154 171
154 172
154 173
154 174
154 175
154 176
154 179
154 180
154 181
154 182
154 183
154 184
154 186
154 187
154 188
154 195
154 197
154 198
154 199
154 201
154 202
154 203
154 204
154 206
154 207
154 208
154 209
154 210
154 8
154 9
154 10
154 13
154 15
154 16
154 18
154 19
154 21
154 22
154 23
154 24
154 27
154 28
154 29
154 30
154 31
154 32
154 33
154 34
154 35
154 38
154 39
154 40
154 41
154 44
154 45
154 46
154 48
154 49
154 50
154 51
154 52
154 54
154 55
154 56
154 57
154 59
154 61
154 62
154 63
154 65
154 66
154 67
154 70
154 71
154 72
154 74
154 75
154 77
154 78
154 79
154 81
154 82
155 157
155 163
155 162
155 161
155 210
155 209
155 208
155 207
155 206
155 204
155 203
155 202
155 201
155 199
155 198
155 197
155 195
155 188
155 187
155 186
155 184
155 183
155 182
155 181
155 180
155 179
155 176
155 175
155 174
155 173
155 172
155 171
155 170
155 168
155 166
157 163
157 162
157 161
157 210
157 209
157 208
157 207
157 206
157 204
157 203
157 202
157 201
157 199
157 198
157 197
157 195
157 188
157 187
157 186
157 184
157 183
157 182
157 181
157 180
157 179
157 176
157 175
157 174
157 173
157 172
157 171
157 170
157 168
157 166
158 160
158 164
158 169
158 177
158 185
158 193
158 196
158 205
158 5
158 7
158 12
158 17
158 20
158 26
158 37
158 53
158 60
158 64
158 68
158 73
158 84
158 85
158 86
158 88
158 89
158 92
158 93
158 95
158 96
158 97
158 98
158 99
158 101
158 103
158 104
158 105
158 106
158 107
158 108
158 109
158 110
158 111
158 115
158 116
158 117
158 118
158 119
158 120
158 121
158 122
158 161
158 162
158 163
158 166
158 168
158 170
158 171
158 172
158 173
158 174
158 175
158 176
158 179
158 180
158 181
158 182
158 183
158 184
158 186
158 187
158 188
158 195
158 197
158 198
158 199
158 201
158 202
158 203
158 204
158 206
158 207
158 208
158 209
158 210
158 8
158 9
158 10
158 13
158 15
158 16
158 18
158 19
158 21
158 22
158 23
158 24
158 27
158 28
158 29
158 30
158 31
158 32
158 33
158 34
158 35
158 38
158 39
158 40
158 41
158 44
158 45
158 46
158 48
158 49
158 50
158 51
158 52
158 54
158 55
158 56
158 57
158 59
158 61
158 62
158 63
158 65
158 66
158 67
158 70
158 71
158 72
158 74
158 75
158 77
158 78
158 79
158 81
158 82
158 123
159 11
159 43
159 83
159 87
159 94
159 100
159 112
159 90
159 123
159 124
159 165
159 190
159 191
159 192
159 194
159 4
159 6
159 42
159 76
159 26
159 122
159 121
159 120
159 119
159 118
159 117
159 116
159 115
159 92
159 86
159 64
159 95
159 73
159 85
159 106
159 82
159 81
159 79
159 78
159 77
159 93
159 37
159 84
159 107
159 75
159 74
159 72
159 71
159 70
159 67
159 68
159 89
159 31
159 30
159 29
159 28
159 27
159 24
159 23
159 22
159 21
159 61
159 98
159 59
159 57
159 56
159 55
159 54
159 63
159 62
159 109
159 66
159 65
159 60
159 97
159 32
159 35
159 34
159 33
159 110
159 52
159 51
159 50
159 49
159 48
159 46
159 45
159 44
159 111
159 41
159 40
159 39
159 38
159 18
159 96
159 16
159 15
159 13
159 10
159 9
159 8
159 108
159 19
159 88
159 53
159 163
159 162
159 161
159 104
159 210
159 209
159 208
159 207
159 206
159 204
159 203
159 202
159 201
159 199
159 198
159 197
159 195
159 105
159 188
159 187
159 186
159 184
159 183
159 182
159 181
159 180
159 179
159 176
159 175
159 174
159 173
159 172
159 171
159 170
159 168
159 166
159 101
159 99
159 103
160 164
160 169
160 177
160 185
160 193
160 196
160 205
160 5
160 7
160 12
160 17
160 20
160 26
160 37
160 53
160 60
160 64
160 68
160 73
160 84
160 85
160 86
160 88
160 89
160 92
160 93
160 95
160 96
160 97
160 98
160 99
160 101
160 103
160 104
160 105
160 106
160 107
160 108
160 109
160 110
160 111
160 115
160 116
160 117
160 118
160 119
160 120
160 121
160 122
160 161
160 162
160 163
160 166
160 168
160 170
160 171
160 172
160 173
160 174
160 175
160 176
160 179
160 180
160 181
160 182
160 183
160 184
160 186
160 187
160 188
160 195
160 197
160 198
160 199
160 201
160 202
160 203
160 204
160 206
160 207
160 208
160 209
160 210
160 8
160 9
160 10
160 13
160 15
160 16
160 18
160 19
160 21
160 22
160 23
160 24
160 27
160 28
160 29
160 30
160 31
160 32
160 33
160 34
160 35
160 38
160 39
160 40
160 41
160 44
160 45
160 46
160 48
160 49
160 50
160 51
160 52
160 54
160 55
160 56
160 57
160 59
160 61
160 62
160 63
160 65
160 66
160 67
160 70
160 71
160 72
160 74
160 75
160 77
160 78
160 79
160 81
160 82
160 124
160 123
161 163
161 162
161 210
161 209
161 208
161 207
161 206
161 204
161 203
161 202
161 201
161 199
161 198
161 197
161 195
161 166
162 163
162 210
162 209
162 208
162 207
162 206
162 204
162 203
162 202
162 201
162 199
162 198
162 197
162 195
162 168
162 166
163 210
163 209
163 208
163 207
163 206
163 204
163 203
163 202
163 201
163 199
163 198
163 197
163 195
163 170
163 168
163 166
164 169
164 177
164 185
164 193
164 196
164 205
164 5
164 7
164 12
164 17
164 20
164 26
164 37
164 53
164 60
164 64
164 68
164 73
164 84
164 85
164 86
164 88
164 89
164 92
164 93
164 95
164 96
164 97
164 98
164 99
164 101
164 103
164 104
164 105
164 106
164 107
164 108
164 109
164 110
164 111
164 115
164 116
164 117
164 118
164 119
164 120
164 121
164 122
164 166
164 168
164 170
164 171
164 172
164 173
164 174
164 175
164 176
164 179
164 180
164 181
164 182
164 183
164 184
164 186
164 187
164 188
164 195
164 197
164 198
164 199
164 201
164 202
164 203
164 204
164 206
164 207
164 208
164 209
164 210
164 8
164 9
164 10
164 13
164 15
164 16
164 18
164 19
164 21
164 22
164 23
164 24
164 27
164 28
164 29
164 30
164 31
164 32
164 33
164 34
164 35
164 38
164 39
164 40
164 41
164 44
164 45
164 46
164 48
164 49
164 50
164 51
164 52
164 54
164 55
164 56
164 57
164 59
164 61
164 62
164 63
164 65
164 66
164 67
164 70
164 71
164 72
164 74
164 75
164 77
164 78
164 79
164 81
164 82
164 124
164 123
165 194
165 192
165 191
165 190
166 173
166 172
166 171
166 170
166 168
168 174
168 173
168 172
168 171
168 170
169 177
169 185
169 193
169 196
169 205
169 5
169 7
169 12
169 17
169 20
169 26
169 37
169 53
169 60
169 64
169 68
169 73
169 84
169 85
169 86
169 88
169 89
169 92
169 93
169 95
169 96
169 97
169 98
169 99
169 101
169 103
169 104
169 105
169 106
169 107
169 108
169 109
169 110
169 111
169 115
169 116
169 117
169 118
169 119
169 120
169 121
169 122
169 170
169 171
169 172
169 173
169 174
169 175
169 176
169 179
169 180
169 181
169 182
169 183
169 184
169 186
169 187
169 188
169 195
169 197
169 198
169 199
169 201
169 202
169 203
169 204
169 206
169 207
169 208
169 209
169 210
169 8
169 9
169 10
169 13
169 15
169 16
169 18
169 19
169 21
169 22
169 23
169 24
169 27
169 28
169 29
169 30
169 31
169 32
169 33
169 34
169 35
169 38
169 39
169 40
169 41
169 44
169 45
169 46
169 48
169 49
169 50
169 51
169 52
169 54
169 55
169 56
169 57
169 59
169 61
169 62
169 63
169 65
169 66
169 67
169 70
169 71
169 72
169 74
169 75
169 77
169 78
169 79
169 81
169 82
169 124
169 123
170 171
171 172
172 176
172 175
172 174
172 173
173 179
173 176
173 175
173 174
174 180
174 179
174 176
174 175
175 181
175 180
175 179
175 176
176 188
176 187
176 186
176 184
176 183
176 182
176 181
176 180
176 179
177 185
177 193
177 196
177 205
177 5
177 7
177 12
177 17
177 20
177 26
177 37
177 53
177 60
177 64
177 68
177 73
177 84
177 85
177 86
177 88
177 89
177 92
177 93
177 95
177 96
177 97
177 98
177 99
177 101
177 103
177 104
177 105
177 106
177 107
177 108
177 109
177 110
177 111
177 115
177 116
177 117
177 118
177 119
177 120
177 121
177 122
177 179
177 180
177 181
177 182
177 183
177 184
177 186
177 187
177 188
177 195
177 197
177 198
177 199
177 201
177 202
177 203
177 204
177 206
177 207
177 208
177 209
177 210
177 8
177 9
177 10
177 13
177 15
177 16
177 18
177 19
177 21
177 22
177 23
177 24
177 27
177 28
177 29
177 30
177 31
177 32
177 33
177 34
177 35
177 38
177 39
177 40
177 41
177 44
177 45
177 46
177 48
177 49
177 50
177 51
177 52
177 54
177 55
177 56
177 57
177 59
177 61
177 62
177 63
177 65
177 66
177 67
177 70
177 71
177 72
177 74
177 75
177 77
177 78
177 79
177 81
177 82
177 124
177 123
179 182
179 181
179 180
180 187
180 186
180 184
180 183
180 182
180 181
181 184
181 183
181 182
182 186
182 184
182 183
183 188
183 187
183 186
183 184
184 188
184 187
184 186
185 193
185 196
185 205
185 5
185 7
185 12
185 17
185 20
185 26
185 37
185 53
185 60
185 64
185 68
185 73
185 84
185 85
185 86
185 88
185 89
185 92
185 93
185 95
185 96
185 97
185 98
185 99
185 101
185 103
185 104
185 105
185 106
185 107
185 108
185 109
185 110
185 111
185 115
185 116
185 117
185 118
185 119
185 120
185 121
185 122
185 186
185 187
185 188
185 195
185 197
185 198
185 199
185 201
185 202
185 203
185 204
185 206
185 207
185 208
185 209
185 210
185 8
185 9
185 10
185 13
185 15
185 16
185 18
185 19
185 21
185 22
185 23
185 24
185 27
185 28
185 29
185 30
185 31
185 32
185 33
185 34
185 35
185 38
185 39
185 40
185 41
185 44
185 45
185 46
185 48
185 49
185 50
185 51
185 52
185 54
185 55
185 56
185 57
185 59
185 61
185 62
185 63
185 65
185 66
185 67
185 70
185 71
185 72
185 74
185 75
185 77
185 78
185 79
185 81
185 82
185 124
185 123
186 188
186 187
187 188
191 194
191 192
193 196
193 205
193 5
193 7
193 12
193 17
193 20
193 26
193 37
193 53
193 60
193 64
193 68
193 73
193 84
193 85
193 86
193 88
193 89
193 92
193 93
193 95
193 96
193 97
193 98
193 99
193 101
193 103
193 104
193 105
193 106
193 107
193 108
193 109
193 110
193 111
193 115
193 116
193 117
193 118
193 119
193 120
193 121
193 122
193 195
193 197
193 198
193 199
193 201
193 202
193 203
193 204
193 206
193 207
193 208
193 209
193 210
193 8
193 9
193 10
193 13
193 15
193 16
193 18
193 19
193 21
193 22
193 23
193 24
193 27
193 28
193 29
193 30
193 31
193 32
193 33
193 34
193 35
193 38
193 39
193 40
193 41
193 44
193 45
193 46
193 48
193 49
193 50
193 51
193 52
193 54
193 55
193 56
193 57
193 59
193 61
193 62
193 63
193 65
193 66
193 67
193 70
193 71
193 72
193 74
193 75
193 77
193 78
193 79
193 81
193 82
193 124
193 123
195 198
195 197
196 205
196 5
196 7
196 12
196 17
196 20
196 26
196 37
196 53
196 60
196 64
196 68
196 73
196 84
196 85
196 86
196 88
196 89
196 92
196 93
196 95
196 96
196 97
196 98
196 99
196 101
196 103
196 104
196 105
196 106
196 107
196 108
196 109
196 110
196 111
196 115
196 116
196 117
196 118
196 119
196 120
196 121
196 122
196 197
196 198
196 199
196 201
196 202
196 203
196 204
196 206
196 207
196 208
196 209
196 210
196 8
196 9
196 10
196 13
196 15
196 16
196 18
196 19
196 21
196 22
196 23
196 24
196 27
196 28
196 29
196 30
196 31
196 32
196 33
196 34
196 35
196 38
196 39
196 40
196 41
196 44
196 45
196 46
196 48
196 49
196 50
196 51
196 52
196 54
196 55
196 56
196 57
196 59
196 61
196 62
196 63
196 65
196 66
196 67
196 70
196 71
196 72
196 74
196 75
196 77
196 78
196 79
196 81
196 82
196 124
196 123
197 199
197 198
198 201
198 199
199 204
199 203
199 202
199 201
201 206
201 204
201 203
201 202
202 203
203 210
203 209
203 208
203 207
203 206
203 204
204 209
204 208
204 207
204 206
205 5
205 7
205 12
205 17
205 20
205 26
205 37
205 53
205 60
205 64
205 68
205 73
205 84
205 85
205 86
205 88
205 89
205 92
205 93
205 95
205 96
205 97
205 98
205 99
205 101
205 103
205 104
205 105
205 106
205 107
205 108
205 109
205 110
205 111
205 115
205 116
205 117
205 118
205 119
205 120
205 121
205 122
205 206
205 207
205 208
205 209
205 210
205 8
205 9
205 10
205 13
205 15
205 16
205 18
205 19
205 21
205 22
205 23
205 24
205 27
205 28
205 29
205 30
205 31
205 32
205 33
205 34
205 35
205 38
205 39
205 40
205 41
205 44
205 45
205 46
205 48
205 49
205 50
205 51
205 52
205 54
205 55
205 56
205 57
205 59
205 61
205 62
205 63
205 65
205 66
205 67
205 70
205 71
205 72
205 74
205 75
205 77
205 78
205 79
205 81
205 82
205 124
205 123
206 207
207 208
208 210
208 209
209 210
5 7
5 12
5 17
5 20
5 26
5 37
5 53
5 60
5 64
5 68
5 73
5 84
5 85
5 86
5 88
5 89
5 92
5 93
5 95
5 96
5 97
5 98
5 99
5 101
5 103
5 104
5 105
5 106
5 107
5 108
5 109
5 110
5 111
5 115
5 116
5 117
5 118
5 119
5 120
5 121
5 122
5 8
5 9
5 10
5 13
5 15
5 16
5 18
5 19
5 21
5 22
5 23
5 24
5 27
5 28
5 29
5 30
5 31
5 32
5 33
5 34
5 35
5 38
5 39
5 40
5 41
5 44
5 45
5 46
5 48
5 49
5 50
5 51
5 52
5 54
5 55
5 56
5 57
5 59
5 61
5 62
5 63
5 65
5 66
5 67
5 70
5 71
5 72
5 74
5 75
5 77
5 78
5 79
5 81
5 82
5 124
5 123
7 12
7 17
7 20
7 26
7 37
7 53
7 60
7 64
7 68
7 73
7 84
7 85
7 86
7 88
7 89
7 92
7 93
7 95
7 96
7 97
7 98
7 99
7 101
7 103
7 104
7 105
7 106
7 107
7 108
7 109
7 110
7 111
7 115
7 116
7 117
7 118
7 119
7 120
7 121
7 122
7 8
7 9
7 10
7 13
7 15
7 16
7 18
7 19
7 21
7 22
7 23
7 24
7 27
7 28
7 29
7 30
7 31
7 32
7 33
7 34
7 35
7 38
7 39
7 40
7 41
7 44
7 45
7 46
7 48
7 49
7 50
7 51
7 52
7 54
7 55
7 56
7 57
7 59
7 61
7 62
7 63
7 65
7 66
7 67
7 70
7 71
7 72
7 74
7 75
7 77
7 78
7 79
7 81
7 82
7 124
7 123
8 18
8 16
8 15
8 13
8 10
8 9
8 19
9 18
9 16
9 15
9 13
9 10
9 19
10 13
11 43
11 83
11 87
11 94
11 100
11 112
11 90
11 123
11 124
11 42
11 76
12 17
12 20
12 26
12 37
12 53
12 60
12 64
12 68
12 73
12 84
12 85
12 86
12 88
12 89
12 92
12 93
12 95
12 96
12 97
12 98
12 99
12 101
12 103
12 104
12 105
12 106
12 107
12 108
12 109
12 110
12 111
12 115
12 116
12 117
12 118
12 119
12 120
12 121
12 122
12 13
12 15
12 16
12 18
12 19
12 21
12 22
12 23
12 24
12 27
12 28
12 29
12 30
12 31
12 32
12 33
12 34
12 35
12 38
12 39
12 40
12 41
12 44
12 45
12 46
12 48
12 49
12 50
12 51
12 52
12 54
12 55
12 56
12 57
12 59
12 61
12 62
12 63
12 65
12 66
12 67
12 70
12 71
12 72
12 74
12 75
12 77
12 78
12 79
12 81
12 82
12 124
12 123
13 16
13 15
15 18
15 16
15 19
16 18
16 19
17 20
17 26
17 37
17 53
17 60
17 64
17 68
17 73
17 84
17 85
17 86
17 88
17 89
17 92
17 93
17 95
17 96
17 97
17 98
17 99
17 101
17 103
17 104
17 105
17 106
17 107
17 108
17 109
17 110
17 111
17 115
17 116
17 117
17 118
17 119
17 120
17 121
17 122
17 18
17 19
17 21
17 22
17 23
17 24
17 27
17 28
17 29
17 30
17 31
17 32
17 33
17 34
17 35
17 38
17 39
17 40
17 41
17 44
17 45
17 46
17 48
17 49
17 50
17 51
17 52
17 54
17 55
17 56
17 57
17 59
17 61
17 62
17 63
17 65
17 66
17 67
17 70
17 71
17 72
17 74
17 75
17 77
17 78
17 79
17 81
17 82
17 124
17 123
18 19
20 26
20 37
20 53
20 60
20 64
20 68
20 73
20 84
20 85
20 86
20 88
20 89
20 92
20 93
20 95
20 96
20 97
20 98
20 99
20 101
20 103
20 104
20 105
20 106
20 107
20 108
20 109
20 110
20 111
20 115
20 116
20 117
20 118
20 119
20 120
20 121
20 122
20 21
20 22
20 23
20 24
20 27
20 28
20 29
20 30
20 31
20 32
20 33
20 34
20 35
20 38
20 39
20 40
20 41
20 44
20 45
20 46
20 48
20 49
20 50
20 51
20 52
20 54
20 55
20 56
20 57
20 59
20 61
20 62
20 63
20 65
20 66
20 67
20 70
20 71
20 72
20 74
20 75
20 77
20 78
20 79
20 81
20 82
20 124
20 123
21 31
21 30
21 29
21 28
21 27
21 24
21 23
21 22
21 61
21 59
21 57
21 56
21 55
21 54
21 63
21 62
21 66
21 65
21 32
21 35
21 34
21 33
21 52
21 51
21 50
21 49
21 48
21 46
21 45
21 44
21 41
21 40
21 39
21 38
22 31
22 30
22 29
22 28
22 27
22 24
22 23
22 61
22 59
22 57
22 56
22 55
22 54
22 63
22 62
22 66
22 65
22 32
22 35
22 34
22 33
22 52
22 51
22 50
22 49
22 48
22 46
22 45
22 44
22 41
22 40
22 39
22 38
23 24
24 31
24 30
24 29
24 28
24 27
24 61
24 59
24 57
24 56
24 55
24 54
24 63
24 62
24 66
24 65
24 32
24 35
24 34
24 33
24 52
24 51
24 50
24 49
24 48
24 46
24 45
24 44
24 41
24 40
24 39
24 38
26 122
26 121
26 120
26 119
26 118
26 117
26 116
26 115
26 92
26 86
26 64
26 95
26 73
26 85
26 106
26 82
26 81
26 79
26 78
26 77
26 88
26 53
26 104
26 105
26 101
26 99
26 103
27 30
27 29
27 28
28 31
28 30
28 29
28 61
28 59
28 57
28 56
28 55
28 54
28 63
28 62
28 66
28 65
28 32
28 35
28 34
28 33
28 52
28 51
28 50
28 49
28 48
28 46
28 45
28 44
28 41
28 40
28 39
28 38
29 31
29 30
29 61
29 59
29 57
29 56
29 55
29 54
29 63
29 62
29 66
29 65
29 32
29 35
29 34
29 33
29 52
29 51
29 50
29 49
29 48
29 46
29 45
29 44
29 41
29 40
29 39
29 38
30 31
30 61
30 59
30 57
30 56
30 55
30 54
30 63
30 62
30 66
30 65
30 32
30 35
30 34
30 33
30 52
30 51
30 50
30 49
30 48
30 46
30 45
30 44
30 41
30 40
30 39
30 38
31 61
31 59
31 57
31 56
31 55
31 54
31 63
31 62
31 66
31 65
31 32
31 35
31 34
31 33
31 52
31 51
31 50
31 49
31 48
31 46
31 45
31 44
31 41
31 40
31 39
31 38
32 35
32 34
32 33
32 52
32 51
32 50
32 49
32 48
32 46
32 45
32 44
32 41
32 40
32 39
32 38
33 35
33 34
33 49
33 48
33 46
33 45
33 44
34 35
34 52
34 51
34 50
34 49
34 48
34 46
34 45
34 44
34 40
34 39
34 38
35 52
35 51
35 50
35 49
35 48
35 46
35 45
35 44
37 93
37 95
37 86
37 85
37 84
37 122
37 121
37 120
37 119
37 118
37 117
37 116
37 115
37 107
37 75
37 74
37 72
37 71
37 70
37 67
37 68
37 89
37 61
37 98
37 59
37 57
37 56
37 55
37 54
37 63
37 62
37 109
37 66
37 65
37 60
37 97
37 110
37 52
37 51
37 50
37 49
37 48
37 46
37 45
37 44
37 111
37 41
37 40
37 39
37 38
37 96
37 108
38 39
39 41
39 40
40 41
43 83
43 87
43 94
43 100
43 112
43 90
43 123
43 124
43 76
44 45
45 52
45 51
45 50
45 49
45 48
45 46
46 48
48 52
48 51
48 50
48 49
49 51
49 50
50 52
50 51
51 52
53 95
53 92
53 88
53 86
53 85
53 73
53 64
53 122
53 121
53 120
53 119
53 118
53 117
53 116
53 115
53 104
53 105
54 61
54 59
54 57
54 56
54 55
54 63
54 62
54 66
54 65
55 56
56 57
57 59
59 61
59 63
59 62
59 66
59 65
60 97
60 95
60 93
60 68
60 89
60 85
60 84
60 122
60 121
60 120
60 119
60 118
60 117
60 116
60 115
60 110
60 111
61 63
61 62
61 66
61 65
62 63
63 65
64 86
64 92
64 122
64 121
64 120
64 119
64 118
64 117
64 116
64 115
64 73
64 85
64 88
64 95
64 104
64 105
65 66
67 75
67 74
67 72
67 71
67 70
68 95
68 93
68 89
68 85
68 84
68 122
68 121
68 120
68 119
68 118
68 117
68 116
68 115
68 98
68 109
68 97
68 110
68 111
70 71
71 75
71 74
71 72
72 75
72 74
73 86
73 85
73 95
73 122
73 121
73 120
73 119
73 118
73 117
73 116
73 115
73 106
73 82
73 81
73 79
73 78
73 77
73 92
73 88
73 104
73 105
74 75
77 82
77 81
77 79
77 78
78 79
79 82
79 81
81 82
83 87
83 94
83 100
83 112
83 90
83 123
83 124
83 115
84 93
84 86
84 85
84 95
84 122
84 121
84 120
84 119
84 118
84 117
84 116
84 115
84 107
84 89
84 98
84 109
84 97
84 110
84 111
85 86
85 95
85 122
85 121
85 120
85 119
85 118
85 117
85 116
85 115
85 106
85 93
85 107
85 89
85 98
85 109
85 97
85 110
85 111
85 92
85 88
85 104
85 105
86 92
86 122
86 121
86 120
86 119
86 118
86 117
86 116
86 115
86 95
86 106
86 93
86 88
86 104
86 105
87 94
87 100
87 112
87 90
87 123
87 124
87 116
87 115
88 92
88 95
88 122
88 121
88 120
88 119
88 118
88 117
88 116
88 115
88 104
88 105
89 95
89 93
89 122
89 121
89 120
89 119
89 118
89 117
89 116
89 115
89 98
89 109
89 97
89 110
89 111
90 124
90 123
92 122
92 121
92 120
92 119
92 118
92 117
92 116
92 115
92 95
92 105
92 101
92 99
92 103
93 95
93 122
93 121
93 120
93 119
93 118
93 117
93 116
93 115
93 107
93 98
93 109
93 97
93 111
93 96
93 108
94 100
94 112
94 123
94 124
94 117
94 116
94 115
95 122
95 121
95 120
95 119
95 118
95 117
95 116
95 115
95 106
95 107
95 98
95 109
95 97
95 110
95 111
95 104
95 105
96 122
96 121
96 120
96 119
96 118
96 117
96 116
96 115
96 108
97 122
97 121
97 120
97 119
97 118
97 117
97 116
97 115
97 110
97 111
98 122
98 121
98 120
98 119
98 118
98 117
98 116
98 115
98 109
99 101
99 122
99 121
99 120
99 119
99 118
99 117
99 116
99 115
99 103
100 112
100 123
100 124
100 118
100 117
100 116
100 115
101 122
101 121
101 120
101 119
101 118
101 117
101 116
101 115
101 103
103 122
103 121
103 120
103 119
103 118
103 117
103 116
103 115
104 122
104 121
104 120
104 119
104 118
104 117
104 116
104 115
105 122
105 121
105 120
105 119
105 118
105 117
105 116
105 115
106 122
106 121
106 120
106 119
106 118
106 117
106 116
106 115
107 122
107 121
107 120
107 119
107 118
107 117
107 116
107 115
108 122
108 121
108 120
108 119
108 118
108 117
108 116
108 115
109 122
109 121
109 120
109 119
109 118
109 117
109 116
109 115
110 122
110 121
110 120
110 119
110 118
110 117
110 116
110 115
111 122
111 121
111 120
111 119
111 118
111 117
111 116
111 115
112 123
112 124
112 119
112 118
112 117
112 116
112 115
115 122
115 121
115 120
115 119
115 118
115 117
115 116
116 122
116 121
116 120
116 119
116 118
116 117
117 122
117 121
117 120
117 119
117 118
118 122
118 121
118 120
118 119
119 122
119 121
119 120
120 122
120 121
121 122
123 124
